(set-info :smt-lib-version 2.6)
(set-info :category "crafted")
(set-logic QF_FFA)
(define-sort FF0 () (_ FiniteField 52435875175126190479447740508185965837690552500527637822603658699938581184513))
(declare-fun _14_alt () FF0)
(declare-fun _8_alt () FF0)
(declare-fun _13_alt () FF0)
(declare-fun _7_alt () FF0)
(declare-fun _12_alt () FF0)
(declare-fun _6_alt () FF0)
(declare-fun _11_alt () FF0)
(declare-fun _5_alt () FF0)
(declare-fun _10_alt () FF0)
(declare-fun _4_alt () FF0)
(declare-fun _9_alt () FF0)
(declare-fun _2_alt () FF0)
(declare-fun _1_alt () FF0)
(declare-fun _3_alt () FF0)
(declare-fun _0_alt () FF0)
(declare-fun _14 () FF0)
(declare-fun _8 () FF0)
(declare-fun _13 () FF0)
(declare-fun _7 () FF0)
(declare-fun _12 () FF0)
(declare-fun _6 () FF0)
(declare-fun _11 () FF0)
(declare-fun _5 () FF0)
(declare-fun _10 () FF0)
(declare-fun _4 () FF0)
(declare-fun _9 () FF0)
(declare-fun _2 () FF0)
(declare-fun _1 () FF0)
(declare-fun _3 () FF0)
(declare-fun _0 () FF0)
(declare-fun out_alt () FF0)
(declare-fun out () FF0)
(assert 
  (let ((let0 _14_alt))
  (let ((let1 _8_alt))
  (let ((let2 _13_alt))
  (let ((let3 (ff.mul let2 let1)))
  (let ((let4 (= let3 let0)))
  (let ((let5 _7_alt))
  (let ((let6 _12_alt))
  (let ((let7 (ff.mul let6 let5)))
  (let ((let8 (= let7 let2)))
  (let ((let9 _6_alt))
  (let ((let10 _11_alt))
  (let ((let11 (ff.mul let10 let9)))
  (let ((let12 (= let11 let6)))
  (let ((let13 _5_alt))
  (let ((let14 _10_alt))
  (let ((let15 (ff.mul let14 let13)))
  (let ((let16 (= let15 let10)))
  (let ((let17 _4_alt))
  (let ((let18 _9_alt))
  (let ((let19 (ff.mul let18 let17)))
  (let ((let20 (= let19 let14)))
  (let ((let21 _2_alt))
  (let ((let22 _1_alt))
  (let ((let23 (ff.mul let22 let21)))
  (let ((let24 (= let23 let18)))
  (let ((let25 (as ff1 FF0)))
  (let ((let26 (as ff52435875175126190479447740508185965837690552500527637822603658699938581184512 FF0)))
  (let ((let27 (ff.mul let1 let26)))
  (let ((let28 _3_alt))
  (let ((let29 _0_alt))
  (let ((let30 (ff.mul let29 let26)))
  (let ((let31 (ff.add let30 let28 let27 let25)))
  (let ((let32 (ff.add let30 let25)))
  (let ((let33 (ff.mul let32 let28)))
  (let ((let34 (= let33 let31)))
  (let ((let35 (ff.mul let5 let5)))
  (let ((let36 (= let35 let5)))
  (let ((let37 (ff.mul let9 let9)))
  (let ((let38 (= let37 let9)))
  (let ((let39 (ff.mul let13 let13)))
  (let ((let40 (= let39 let13)))
  (let ((let41 (ff.mul let17 let17)))
  (let ((let42 (= let41 let17)))
  (let ((let43 (ff.mul let28 let28)))
  (let ((let44 (= let43 let28)))
  (let ((let45 (ff.mul let21 let21)))
  (let ((let46 (= let45 let21)))
  (let ((let47 (ff.mul let22 let22)))
  (let ((let48 (= let47 let22)))
  (let ((let49 (ff.mul let29 let29)))
  (let ((let50 (= let49 let29)))
  (let ((let51 (and let50 let48 let46 let44 let42 let40 let38 let36 let34 let24 let20 let16 let12 let8 let4)))
  (let ((let52 _14))
  (let ((let53 _8))
  (let ((let54 _13))
  (let ((let55 (ff.mul let54 let53)))
  (let ((let56 (= let55 let52)))
  (let ((let57 _7))
  (let ((let58 _12))
  (let ((let59 (ff.mul let58 let57)))
  (let ((let60 (= let59 let54)))
  (let ((let61 _6))
  (let ((let62 _11))
  (let ((let63 (ff.mul let62 let61)))
  (let ((let64 (= let63 let58)))
  (let ((let65 _5))
  (let ((let66 _10))
  (let ((let67 (ff.mul let66 let65)))
  (let ((let68 (= let67 let62)))
  (let ((let69 _4))
  (let ((let70 _9))
  (let ((let71 (ff.mul let70 let69)))
  (let ((let72 (= let71 let66)))
  (let ((let73 _2))
  (let ((let74 _1))
  (let ((let75 (ff.mul let74 let73)))
  (let ((let76 (= let75 let70)))
  (let ((let77 (ff.mul let53 let26)))
  (let ((let78 _3))
  (let ((let79 _0))
  (let ((let80 (ff.mul let79 let26)))
  (let ((let81 (ff.add let80 let78 let77 let25)))
  (let ((let82 (ff.add let80 let25)))
  (let ((let83 (ff.mul let82 let78)))
  (let ((let84 (= let83 let81)))
  (let ((let85 (ff.mul let57 let57)))
  (let ((let86 (= let85 let57)))
  (let ((let87 (ff.mul let61 let61)))
  (let ((let88 (= let87 let61)))
  (let ((let89 (ff.mul let65 let65)))
  (let ((let90 (= let89 let65)))
  (let ((let91 (ff.mul let69 let69)))
  (let ((let92 (= let91 let69)))
  (let ((let93 (ff.mul let78 let78)))
  (let ((let94 (= let93 let78)))
  (let ((let95 (ff.mul let73 let73)))
  (let ((let96 (= let95 let73)))
  (let ((let97 (ff.mul let74 let74)))
  (let ((let98 (= let97 let74)))
  (let ((let99 (ff.mul let79 let79)))
  (let ((let100 (= let99 let79)))
  (let ((let101 (and let100 let98 let96 let94 let92 let90 let88 let86 let84 let76 let72 let68 let64 let60 let56)))
  (let ((let102 out_alt))
  (let ((let103 out))
  (let ((let104 (= let103 let102)))
  (let ((let105 (not let104)))
  (let ((let106 (= let74 let22)))
  (let ((let107 (= let69 let17)))
  (let ((let108 (= let79 let29)))
  (let ((let109 (= let65 let13)))
  (let ((let110 (= let61 let9)))
  (let ((let111 (= let78 let28)))
  (let ((let112 (= let73 let21)))
  (let ((let113 (= let57 let5)))
  (let ((let114 (and let113 let112 let111 let110 let109 let108 let107 let106)))
  (let ((let115 (and let114 let105 let101 let51)))
  let115
))))))))))))))))))))))))))))))))))))))))))))))))))))))))))))))))))))))))))))))))))))))))))))))))))))))))))))))))))))
)
(check-sat)
